4x4_si_surface_from540eV_1x1x1conv      
1.0
       15.3329877853         0.0000000000         0.0000000000
        7.6664938927        13.2787569380         0.0000000000
        0.0000000000         0.0000000000        37.5579948425
    H   Si
   32  192
Cartesian
    15.332980953         0.000284179         0.843598688
     7.666173349         0.000344711         0.843593441
    19.166162989         6.639604040         0.843588195
    11.499637109         6.639490067         0.843583437
     3.833340375         0.000226724         0.843597009
    11.499847730         0.000064836         0.843590783
     7.666474700         6.639427540         0.843588264
    15.332972477         6.639370950         0.843584976
    17.249437843         3.319562994         0.843591063
     9.582995815         3.319757301         0.843583507
    21.082661713         9.959004385         0.843592602
    13.416203463         9.959010717         0.843586376
     5.749919543         3.319387287         0.843591483
    13.416408523         3.319650254         0.843586166
     9.583183168         9.958981433         0.843592392
    17.249839738         9.958909408         0.843586795
     0.008697727         0.010469779        20.256415490
     7.674672326         0.002526022        20.261685228
     3.830145724         6.627010476        20.262862747
    11.507184695        13.271172227        20.263417928
    19.174635002        13.278721322        20.263373155
     7.675824303         6.628927430        20.270068900
    15.402998648         6.635229950        20.245923027
    17.242037512         3.312507187        20.254351473
     9.577750158         3.260036115        20.240612994
     5.757288679         9.952227771        20.265016310
    13.416863311         9.936486905        20.257577340
     5.772066500         3.303852995        20.262356817
    13.474502018         3.213547213        20.244635814
     9.606676326         9.947304002        20.258331758
    17.251213356         9.945280199        20.264929004
    11.499222648         6.661053028        20.264929004
     0.000000000         0.000000000         2.347374678
     7.666493893         0.000000000         2.347374678
     3.833246946         6.639378469         2.347374678
    11.499740839         6.639378469         2.347374678
     3.833246946         0.000000000         2.347374678
    11.499740839         0.000000000         2.347374678
     7.666493893         6.639378469         2.347374678
    15.332987785         6.639378469         2.347374678
     1.916623473         3.319689235         2.347374678
     9.583117366         3.319689235         2.347374678
     5.749870420         9.959067704         2.347374678
    13.416364312         9.959067704         2.347374678
     5.749870420         3.319689235         2.347374678
    13.416364312         3.319689235         2.347374678
     9.583117366         9.959067704         2.347374678
    17.249611259         9.959067704         2.347374678
    19.166234275        11.065630518         3.129832997
    11.499740839        11.065630518         3.129832997
    15.332987557         4.426252445         3.129832997
     7.666494121         4.426252445         3.129832997
     7.666493778        11.065630518         3.129832997
    15.332987328        11.065630518         3.129832997
     3.833247061         4.426252445         3.129832997
    11.499740611         4.426252445         3.129832997
    13.416364027         1.106563111         3.129832997
     5.749870591         1.106563111         3.129832997
    17.249610802         7.745941283         3.129832997
     9.583117366         7.745941283         3.129832997
     1.916623530         1.106563111         3.129832997
     9.583117080         1.106563111         3.129832997
     5.749870305         7.745941283         3.129832997
    13.416363855         7.745941283         3.129832997
    19.166234275        11.065630518         5.477207395
    11.499740839        11.065630518         5.477207395
    15.332987557         4.426252445         5.477207395
     7.666494121         4.426252445         5.477207395
     7.666493778        11.065630518         5.477207395
    15.332987328        11.065630518         5.477207395
     3.833247061         4.426252445         5.477207395
    11.499740611         4.426252445         5.477207395
    13.416364027         1.106563111         5.477207395
     5.749870591         1.106563111         5.477207395
    17.249610802         7.745941283         5.477207395
     9.583117366         7.745941283         5.477207395
     1.916623530         1.106563111         5.477207395
     9.583117080         1.106563111         5.477207395
     5.749870305         7.745941283         5.477207395
    13.416363855         7.745941283         5.477207395
    15.332988242         8.852504889         6.259665994
     7.666494121         8.852504889         6.259665994
    11.499741182         2.213126222         6.259665994
     3.833247061         2.213126222         6.259665994
    19.166235189         8.852504889         6.259665994
    11.499740839         8.852504889         6.259665994
    15.332988128         2.213126222         6.259665994
     7.666493778         2.213126222         6.259665994
    17.249611715        12.172194124         6.259665994
     9.583117594        12.172194124         6.259665994
    13.416364541         5.532815259         6.259665994
     5.749870420         5.532815259         6.259665994
    21.082858662        12.172194124         6.259665994
    13.416364312        12.172194124         6.259665994
    17.249611487         5.532815259         6.259665994
     9.583117137         5.532815259         6.259665994
    15.335499230         8.850324374         8.604749433
     7.668931082         8.850160538         8.604955946
    11.502137359         2.210989040         8.605246968
     3.835465366         2.212348993         8.605904006
    19.168911595         8.850272137         8.604964341
    11.502263708         8.850008575         8.605221224
    15.335691724         2.210945311         8.605610186
     7.669887382         2.211103606         8.605307971
    17.252051418        12.169746090         8.604271485
     9.585722030        12.169193640         8.604430428
    13.418829376         5.530464576         8.604773498
     5.752301211         5.530282141         8.604820509
    21.085623719        12.169492817         8.604682274
    13.419621513        12.168709257         8.604508220
    17.252436177         5.530492674         8.605029821
     9.585571919         5.530329234         8.605141193
    11.502447634         6.636641151         9.387152066
     3.836287356         6.637031348         9.387168296
    15.335853373        13.276107869         9.386090395
     7.669618916        13.275650396         9.386333846
    15.335905466         6.636955762         9.386045622
     7.668855226         6.636708426         9.386618712
    19.168907026        13.275730335         9.385607410
    11.503230632        13.276247169         9.382918815
    13.419191972         9.955496566         9.388517071
     5.752677460         9.956390142         9.387623857
     9.586461046         3.317667212         9.389323538
     1.918358115         3.318261215         9.389988971
    17.252384997         9.956718604         9.386561627
     9.585766812         9.956045850         9.387672547
    13.418949213         3.317405630         9.387447565
     5.753860925         3.317336771         9.387863391
    11.504466705         6.634468154        11.732081599
     3.838646102         6.635257256        11.732175621
    15.337991026        13.273788846        11.730560449
     7.672204178        13.272959379        11.730895124
    15.337831775         6.635491137        11.730452995
     7.670665697         6.634804927        11.731224203
    19.170829451        13.273136670        11.729789241
    11.505959589        13.273535574        11.725700381
    13.421246458         9.952465214        11.734126588
     5.754784488         9.954265821        11.732795722
     9.589407516         3.316283713        11.735249262
     1.918933180         3.317703224        11.736097703
    17.254339867         9.954985272        11.731282408
     9.587837749         9.953489384        11.732843853
    13.420420049         3.315802694        11.732514774
     5.757774776         3.315753820        11.733007273
     7.673862351         4.423656800        12.518467876
    15.333475817         4.425200178        12.518854040
    11.504919094        11.062052257        12.511415069
    19.171094030        11.060581695        12.514513334
    11.506260268         4.423233361        12.518959255
     3.840373902         4.421245966        12.512584754
    15.337893236        11.060962395        12.513943603
     7.671728125        11.060025288        12.515478184
     9.587188410         7.739394197        12.514348795
    17.254698579         7.741866767        12.512982111
     5.754392996         1.100803345        12.510865485
    13.421327112         1.100588361        12.509899516
    13.421750027         7.737989328        12.516681448
     5.755235799         7.741194013        12.516016575
     9.588550090         1.100913163        12.512411260
     1.924537826         1.100753285        12.508137713
     7.677740559         4.423227029        14.864710925
    15.332115908         4.425572171        14.865394827
    11.506628120        11.061814814        14.855131824
    19.173021025        11.058610129        14.859827352
    11.509072391         4.421834032        14.865662344
     3.844209384         4.418547825        14.856511940
    15.339804237        11.059262305        14.858814372
     7.673714982        11.057517893        14.860924281
     9.588541465         7.736464946        14.859356120
    17.256773171         7.740100193        14.857695056
     5.755495009         1.097790693        14.855136301
    13.423981813         1.097456888        14.853261448
    13.423233771         7.734482300        14.862762197
     5.757473526         7.739267561        14.861809660
     9.590916450         1.097942359        14.856689911
     1.929057946         1.097925936        14.850901930
     3.841955436         2.206015408        15.643848515
    11.508583903         2.204590356        15.638750033
     7.674463251         8.844398596        15.649092508
    15.339362815         8.845778930        15.642581450
     7.672247687         2.204912882        15.634831310
    15.344874993         2.204455607        15.625208555
    11.505871853         8.847378502        15.631427472
    19.173117900         8.845497164        15.645989766
     5.758479292         5.526265798        15.648717538
    13.417077168         5.528365187        15.674036454
     9.590425048        12.165918514        15.643741061
    17.256616891        12.164450327        15.646323322
     9.595543899         5.527195386        15.657705641
    17.259278676         5.524448966        15.635274559
    13.423346640        12.164684603        15.645587932
    21.089998641        12.164794618        15.644755161
     3.843801663         2.204521695        17.991115739
    11.513498950         2.199648382        17.982385078
     7.677678641         8.841771689        17.996442561
    15.339971484         8.843937957        17.987701827
     7.672777759         2.200812247        17.977335846
    15.349424359         2.200057971        17.963807799
    11.504413241         8.838896258        17.970662487
    19.174526703         8.843908673        17.992775684
     5.762028947         5.524861325        17.996083261
    13.404834103         5.532553281        18.030624217
     9.591500501        12.164779580        17.990141934
    17.258006503        12.162698791        17.993226768
     9.611382771         5.531760222        18.007132024
    17.264684268         5.520282243        17.977387335
    13.424226743        12.161309751        17.992943581
    21.091633182        12.163019339        17.991164989
     7.675314148        13.273911524        18.752468525
    15.341107940        13.270631650        18.757413661
     3.841425081         6.629634613        18.758497158
    11.499222648         6.661053028        18.830347138
    11.508244839        13.270091863        18.759212401
    19.175113895        13.269391407        18.759361270
     7.681723639         6.626845057        18.764545939
    15.351766958         6.627425605        18.743608024
     1.923263303         3.309604055        18.750282502
     9.591672317         3.303515827        18.737905112
     5.759517009         9.949742538        18.760699971
    13.418041350         9.944343092        18.752194293
     5.762643442         3.309513431        18.757401349
    13.438444097         3.294221924        18.745704502
     9.597296793         9.951194104        18.753731113
    17.255917745         9.948632098        18.760086586
